p cnf 680 1605              
-14 -13 -37 0
37 -39 0
13 14 -38 0
38 -39 0
39 -73 0
-16 -15 -40 0
40 -42 0
15 16 -41 0
41 -42 0
42 -73 0
-18 -17 -43 0
43 -45 0
17 18 -44 0
44 -45 0
45 -73 0
-20 -19 -46 0
46 -48 0
19 20 -47 0
47 -48 0
48 -73 0
-22 -21 -49 0
49 -51 0
21 22 -50 0
50 -51 0
51 -73 0
-24 -23 -52 0
52 -54 0
23 24 -53 0
53 -54 0
54 -73 0
-26 -25 -55 0
55 -57 0
25 26 -56 0
56 -57 0
57 -73 0
-28 -27 -58 0
58 -60 0
27 28 -59 0
59 -60 0
60 -73 0
-30 -29 -61 0
61 -63 0
29 30 -62 0
62 -63 0
63 -73 0
-32 -31 -64 0
64 -66 0
31 32 -65 0
65 -66 0
66 -73 0
-34 -33 -67 0
67 -69 0
33 34 -68 0
68 -69 0
69 -73 0
-36 -35 -70 0
70 -72 0
35 36 -71 0
71 -72 0
72 -73 0
73 -591 0
25 149 0
-31 149 0
-25 31 -149 0
26 150 0
-32 150 0
-26 32 -150 0
27 151 0
-33 151 0
-27 33 -151 0
28 152 0
-34 152 0
-28 34 -152 0
29 153 0
-35 153 0
-29 35 -153 0
30 154 0
-36 154 0
-30 36 -154 0
-149 -150 -151 -152 -153 -154 155 0
31 156 0
-25 156 0
32 157 0
-26 157 0
33 158 0
-27 158 0
34 159 0
-28 159 0
35 160 0
-29 160 0
36 161 0
-30 161 0
-156 -157 -158 -159 -160 -161 162 0
-155 -162 163 0
-163 -164 0
19 134 0
-31 134 0
20 135 0
-32 135 0
21 136 0
-33 136 0
22 137 0
-34 137 0
23 138 0
-35 138 0
24 139 0
-36 139 0
-134 -135 -136 -137 -138 -139 140 0
31 141 0
-19 141 0
32 142 0
-20 142 0
33 143 0
-21 143 0
34 144 0
-22 144 0
35 145 0
-23 145 0
36 146 0
-24 146 0
-141 -142 -143 -144 -145 -146 147 0
-140 -147 148 0
-148 -164 0
19 119 0
-25 119 0
-19 25 -119 0
20 120 0
-26 120 0
-20 26 -120 0
21 121 0
-27 121 0
-21 27 -121 0
22 122 0
-28 122 0
-22 28 -122 0
23 123 0
-29 123 0
-23 29 -123 0
24 124 0
-30 124 0
-24 30 -124 0
-119 -120 -121 -122 -123 -124 125 0
25 126 0
-19 126 0
26 127 0
-20 127 0
27 128 0
-21 128 0
28 129 0
-22 129 0
29 130 0
-23 130 0
30 131 0
-24 131 0
-126 -127 -128 -129 -130 -131 132 0
-125 -132 133 0
-133 -164 0
13 104 0
-31 104 0
14 105 0
-32 105 0
15 106 0
-33 106 0
16 107 0
-34 107 0
17 108 0
-35 108 0
18 109 0
-36 109 0
-104 -105 -106 -107 -108 -109 110 0
31 111 0
-13 111 0
32 112 0
-14 112 0
33 113 0
-15 113 0
34 114 0
-16 114 0
35 115 0
-17 115 0
36 116 0
-18 116 0
-111 -112 -113 -114 -115 -116 117 0
-110 -117 118 0
-118 -164 0
13 89 0
-25 89 0
14 90 0
-26 90 0
15 91 0
-27 91 0
16 92 0
-28 92 0
17 93 0
-29 93 0
18 94 0
-30 94 0
-89 -90 -91 -92 -93 -94 95 0
25 96 0
-13 96 0
26 97 0
-14 97 0
27 98 0
-15 98 0
28 99 0
-16 99 0
29 100 0
-17 100 0
30 101 0
-18 101 0
-96 -97 -98 -99 -100 -101 102 0
-95 -102 103 0
-103 -164 0
13 74 0
-19 74 0
-13 19 -74 0
14 75 0
-20 75 0
-14 20 -75 0
15 76 0
-21 76 0
-15 21 -76 0
16 77 0
-22 77 0
-16 22 -77 0
17 78 0
-23 78 0
-17 23 -78 0
18 79 0
-24 79 0
-18 24 -79 0
-74 -75 -76 -77 -78 -79 80 0
19 81 0
-13 81 0
20 82 0
-14 82 0
21 83 0
-15 83 0
22 84 0
-16 84 0
23 85 0
-17 85 0
24 86 0
-18 86 0
-81 -82 -83 -84 -85 -86 87 0
-80 -87 88 0
-88 -164 0
164 -591 0
-13 -165 0
14 -165 0
13 -14 165 0
-1 165 -166 0
1 -165 -166 0
165 -165 -166 0
166 -189 0
-15 -167 0
16 -167 0
15 -16 167 0
-2 167 -168 0
2 -167 -168 0
167 -167 -168 0
168 -189 0
-17 -169 0
18 -169 0
17 -18 169 0
-3 169 -170 0
3 -169 -170 0
169 -169 -170 0
170 -189 0
-19 -171 0
20 -171 0
19 -20 171 0
-4 171 -172 0
4 -171 -172 0
171 -171 -172 0
172 -189 0
-21 -173 0
22 -173 0
21 -22 173 0
-5 173 -174 0
5 -173 -174 0
173 -173 -174 0
174 -189 0
-23 -175 0
24 -175 0
23 -24 175 0
-6 175 -176 0
6 -175 -176 0
175 -175 -176 0
176 -189 0
-25 -177 0
26 -177 0
25 -26 177 0
-7 177 -178 0
7 -177 -178 0
177 -177 -178 0
178 -189 0
-27 -179 0
28 -179 0
27 -28 179 0
-8 179 -180 0
8 -179 -180 0
179 -179 -180 0
180 -189 0
-29 -181 0
30 -181 0
29 -30 181 0
-9 181 -182 0
9 -181 -182 0
181 -181 -182 0
182 -189 0
-31 -183 0
32 -183 0
31 -32 183 0
-10 183 -184 0
10 -183 -184 0
183 -183 -184 0
184 -189 0
-33 -185 0
34 -185 0
33 -34 185 0
-11 185 -186 0
11 -185 -186 0
185 -185 -186 0
186 -189 0
-35 -187 0
36 -187 0
35 -36 187 0
-12 187 -188 0
12 -187 -188 0
187 -187 -188 0
188 -189 0
189 -591 0
-18 -190 0
-16 -190 0
-14 -190 0
18 16 14 190 0
190 -192 0
13 -191 0
15 -191 0
17 -191 0
-13 -15 -17 191 0
191 -192 0
-190 -191 192 0
-192 202 0
-24 -193 0
-22 -193 0
-20 -193 0
24 22 20 193 0
193 -195 0
19 -194 0
21 -194 0
23 -194 0
-19 -21 -23 194 0
194 -195 0
-193 -194 195 0
-195 202 0
-30 -196 0
-28 -196 0
-26 -196 0
30 28 26 196 0
196 -198 0
25 -197 0
27 -197 0
29 -197 0
-25 -27 -29 197 0
197 -198 0
-196 -197 198 0
-198 202 0
-36 -199 0
-34 -199 0
-32 -199 0
36 34 32 199 0
199 -201 0
31 -200 0
33 -200 0
35 -200 0
-31 -33 -35 200 0
200 -201 0
-199 -200 201 0
-201 202 0
192 195 198 201 -202 0
202 -229 0
3 -205 0
192 -205 0
-3 -192 205 0
-205 217 0
6 -208 0
195 -208 0
-6 -195 208 0
-208 217 0
9 -211 0
198 -211 0
-9 -198 211 0
-211 217 0
12 -214 0
201 -214 0
-12 -201 214 0
-214 217 0
205 208 211 214 -217 0
217 -229 0
-202 -217 229 0
-217 -228 0
202 -228 0
217 -202 228 0
-229 -228 -230 0
230 -232 0
228 229 -231 0
231 -232 0
232 233 0
202 -224 0
2 -204 0
192 -204 0
-2 -192 204 0
-204 216 0
5 -207 0
195 -207 0
-5 -195 207 0
-207 216 0
8 -210 0
198 -210 0
-8 -198 210 0
-210 216 0
11 -213 0
201 -213 0
-11 -201 213 0
-213 216 0
204 207 210 213 -216 0
216 -224 0
-202 -216 224 0
-216 -223 0
202 -223 0
216 -202 223 0
-224 -223 -225 0
225 -227 0
223 224 -226 0
226 -227 0
227 233 0
202 -219 0
1 -203 0
192 -203 0
-1 -192 203 0
-203 215 0
4 -206 0
195 -206 0
-4 -195 206 0
-206 215 0
7 -209 0
198 -209 0
-7 -198 209 0
-209 215 0
10 -212 0
201 -212 0
-10 -201 212 0
-212 215 0
203 206 209 212 -215 0
215 -219 0
-202 -215 219 0
-215 -218 0
202 -218 0
215 -202 218 0
-219 -218 -220 0
220 -222 0
218 219 -221 0
221 -222 0
222 233 0
-233 -543 0
229 -543 0
-17 -234 0
-16 -234 0
-14 -234 0
17 16 14 234 0
234 -236 0
13 -235 0
15 -235 0
18 -235 0
-13 -15 -18 235 0
235 -236 0
-234 -235 236 0
-236 246 0
-23 -237 0
-22 -237 0
-20 -237 0
23 22 20 237 0
237 -239 0
19 -238 0
21 -238 0
24 -238 0
-19 -21 -24 238 0
238 -239 0
-237 -238 239 0
-239 246 0
-29 -240 0
-28 -240 0
-26 -240 0
29 28 26 240 0
240 -242 0
25 -241 0
27 -241 0
30 -241 0
-25 -27 -30 241 0
241 -242 0
-240 -241 242 0
-242 246 0
-35 -243 0
-34 -243 0
-32 -243 0
35 34 32 243 0
243 -245 0
31 -244 0
33 -244 0
36 -244 0
-31 -33 -36 244 0
244 -245 0
-243 -244 245 0
-245 246 0
236 239 242 245 -246 0
246 -273 0
3 -249 0
236 -249 0
-3 -236 249 0
-249 261 0
6 -252 0
239 -252 0
-6 -239 252 0
-252 261 0
9 -255 0
242 -255 0
-9 -242 255 0
-255 261 0
12 -258 0
245 -258 0
-12 -245 258 0
-258 261 0
249 252 255 258 -261 0
261 -273 0
-246 -261 273 0
-261 -272 0
246 -272 0
261 -246 272 0
-273 -272 -274 0
274 -276 0
272 273 -275 0
275 -276 0
276 277 0
246 -268 0
2 -248 0
236 -248 0
-2 -236 248 0
-248 260 0
5 -251 0
239 -251 0
-5 -239 251 0
-251 260 0
8 -254 0
242 -254 0
-8 -242 254 0
-254 260 0
11 -257 0
245 -257 0
-11 -245 257 0
-257 260 0
248 251 254 257 -260 0
260 -268 0
-246 -260 268 0
-260 -267 0
246 -267 0
260 -246 267 0
-268 -267 -269 0
269 -271 0
267 268 -270 0
270 -271 0
271 277 0
246 -263 0
1 -247 0
236 -247 0
-1 -236 247 0
-247 259 0
4 -250 0
239 -250 0
-4 -239 250 0
-250 259 0
7 -253 0
242 -253 0
-7 -242 253 0
-253 259 0
10 -256 0
245 -256 0
-10 -245 256 0
-256 259 0
247 250 253 256 -259 0
259 -263 0
-246 -259 263 0
-259 -262 0
246 -262 0
259 -246 262 0
-263 -262 -264 0
264 -266 0
262 263 -265 0
265 -266 0
266 277 0
-277 -544 0
272 -544 0
-18 -278 0
-15 -278 0
-14 -278 0
18 15 14 278 0
278 -280 0
13 -279 0
16 -279 0
17 -279 0
-13 -16 -17 279 0
279 -280 0
-278 -279 280 0
-280 290 0
-24 -281 0
-21 -281 0
-20 -281 0
24 21 20 281 0
281 -283 0
19 -282 0
22 -282 0
23 -282 0
-19 -22 -23 282 0
282 -283 0
-281 -282 283 0
-283 290 0
-30 -284 0
-27 -284 0
-26 -284 0
30 27 26 284 0
284 -286 0
25 -285 0
28 -285 0
29 -285 0
-25 -28 -29 285 0
285 -286 0
-284 -285 286 0
-286 290 0
-36 -287 0
-33 -287 0
-32 -287 0
36 33 32 287 0
287 -289 0
31 -288 0
34 -288 0
35 -288 0
-31 -34 -35 288 0
288 -289 0
-287 -288 289 0
-289 290 0
280 283 286 289 -290 0
290 -317 0
3 -293 0
280 -293 0
-3 -280 293 0
-293 305 0
6 -296 0
283 -296 0
-6 -283 296 0
-296 305 0
9 -299 0
286 -299 0
-9 -286 299 0
-299 305 0
12 -302 0
289 -302 0
-12 -289 302 0
-302 305 0
293 296 299 302 -305 0
305 -317 0
-290 -305 317 0
-305 -316 0
290 -316 0
305 -290 316 0
-317 -316 -318 0
318 -320 0
316 317 -319 0
319 -320 0
320 321 0
290 -312 0
2 -292 0
280 -292 0
-2 -280 292 0
-292 304 0
5 -295 0
283 -295 0
-5 -283 295 0
-295 304 0
8 -298 0
286 -298 0
-8 -286 298 0
-298 304 0
11 -301 0
289 -301 0
-11 -289 301 0
-301 304 0
292 295 298 301 -304 0
304 -312 0
-290 -304 312 0
-304 -311 0
290 -311 0
304 -290 311 0
-312 -311 -313 0
313 -315 0
311 312 -314 0
314 -315 0
315 321 0
290 -307 0
1 -291 0
280 -291 0
-1 -280 291 0
-291 303 0
4 -294 0
283 -294 0
-4 -283 294 0
-294 303 0
7 -297 0
286 -297 0
-7 -286 297 0
-297 303 0
10 -300 0
289 -300 0
-10 -289 300 0
-300 303 0
291 294 297 300 -303 0
303 -307 0
-290 -303 307 0
-303 -306 0
290 -306 0
303 -290 306 0
-307 -306 -308 0
308 -310 0
306 307 -309 0
309 -310 0
310 321 0
-321 -547 0
317 -547 0
-17 -322 0
-15 -322 0
-14 -322 0
17 15 14 322 0
322 -324 0
13 -323 0
16 -323 0
18 -323 0
-13 -16 -18 323 0
323 -324 0
-322 -323 324 0
-324 334 0
-23 -325 0
-21 -325 0
-20 -325 0
23 21 20 325 0
325 -327 0
19 -326 0
22 -326 0
24 -326 0
-19 -22 -24 326 0
326 -327 0
-325 -326 327 0
-327 334 0
-29 -328 0
-27 -328 0
-26 -328 0
29 27 26 328 0
328 -330 0
25 -329 0
28 -329 0
30 -329 0
-25 -28 -30 329 0
329 -330 0
-328 -329 330 0
-330 334 0
-35 -331 0
-33 -331 0
-32 -331 0
35 33 32 331 0
331 -333 0
31 -332 0
34 -332 0
36 -332 0
-31 -34 -36 332 0
332 -333 0
-331 -332 333 0
-333 334 0
324 327 330 333 -334 0
334 -361 0
3 -337 0
324 -337 0
-3 -324 337 0
-337 349 0
6 -340 0
327 -340 0
-6 -327 340 0
-340 349 0
9 -343 0
330 -343 0
-9 -330 343 0
-343 349 0
12 -346 0
333 -346 0
-12 -333 346 0
-346 349 0
337 340 343 346 -349 0
349 -361 0
-334 -349 361 0
-349 -360 0
334 -360 0
349 -334 360 0
-361 -360 -362 0
362 -364 0
360 361 -363 0
363 -364 0
364 365 0
334 -356 0
2 -336 0
324 -336 0
-2 -324 336 0
-336 348 0
5 -339 0
327 -339 0
-5 -327 339 0
-339 348 0
8 -342 0
330 -342 0
-8 -330 342 0
-342 348 0
11 -345 0
333 -345 0
-11 -333 345 0
-345 348 0
336 339 342 345 -348 0
348 -356 0
-334 -348 356 0
-348 -355 0
334 -355 0
348 -334 355 0
-356 -355 -357 0
357 -359 0
355 356 -358 0
358 -359 0
359 365 0
334 -351 0
1 -335 0
324 -335 0
-1 -324 335 0
-335 347 0
4 -338 0
327 -338 0
-4 -327 338 0
-338 347 0
7 -341 0
330 -341 0
-7 -330 341 0
-341 347 0
10 -344 0
333 -344 0
-10 -333 344 0
-344 347 0
335 338 341 344 -347 0
347 -351 0
-334 -347 351 0
-347 -350 0
334 -350 0
347 -334 350 0
-351 -350 -352 0
352 -354 0
350 351 -353 0
353 -354 0
354 365 0
-365 -548 0
360 -548 0
-18 -366 0
-16 -366 0
-13 -366 0
18 16 13 366 0
366 -368 0
14 -367 0
15 -367 0
17 -367 0
-14 -15 -17 367 0
367 -368 0
-366 -367 368 0
-368 378 0
-24 -369 0
-22 -369 0
-19 -369 0
24 22 19 369 0
369 -371 0
20 -370 0
21 -370 0
23 -370 0
-20 -21 -23 370 0
370 -371 0
-369 -370 371 0
-371 378 0
-30 -372 0
-28 -372 0
-25 -372 0
30 28 25 372 0
372 -374 0
26 -373 0
27 -373 0
29 -373 0
-26 -27 -29 373 0
373 -374 0
-372 -373 374 0
-374 378 0
-36 -375 0
-34 -375 0
-31 -375 0
36 34 31 375 0
375 -377 0
32 -376 0
33 -376 0
35 -376 0
-32 -33 -35 376 0
376 -377 0
-375 -376 377 0
-377 378 0
368 371 374 377 -378 0
378 -405 0
3 -381 0
368 -381 0
-3 -368 381 0
-381 393 0
6 -384 0
371 -384 0
-6 -371 384 0
-384 393 0
9 -387 0
374 -387 0
-9 -374 387 0
-387 393 0
12 -390 0
377 -390 0
-12 -377 390 0
-390 393 0
381 384 387 390 -393 0
393 -405 0
-378 -393 405 0
-393 -404 0
378 -404 0
393 -378 404 0
-405 -404 -406 0
406 -408 0
404 405 -407 0
407 -408 0
408 409 0
378 -400 0
2 -380 0
368 -380 0
-2 -368 380 0
-380 392 0
5 -383 0
371 -383 0
-5 -371 383 0
-383 392 0
8 -386 0
374 -386 0
-8 -374 386 0
-386 392 0
11 -389 0
377 -389 0
-11 -377 389 0
-389 392 0
380 383 386 389 -392 0
392 -400 0
-378 -392 400 0
-392 -399 0
378 -399 0
392 -378 399 0
-400 -399 -401 0
401 -403 0
399 400 -402 0
402 -403 0
403 409 0
378 -395 0
1 -379 0
368 -379 0
-1 -368 379 0
-379 391 0
4 -382 0
371 -382 0
-4 -371 382 0
-382 391 0
7 -385 0
374 -385 0
-7 -374 385 0
-385 391 0
10 -388 0
377 -388 0
-10 -377 388 0
-388 391 0
379 382 385 388 -391 0
391 -395 0
-378 -391 395 0
-391 -394 0
378 -394 0
391 -378 394 0
-395 -394 -396 0
396 -398 0
394 395 -397 0
397 -398 0
398 409 0
-409 -551 0
405 -551 0
-17 -410 0
-16 -410 0
-13 -410 0
17 16 13 410 0
410 -412 0
14 -411 0
15 -411 0
18 -411 0
-14 -15 -18 411 0
411 -412 0
-410 -411 412 0
-412 422 0
-23 -413 0
-22 -413 0
-19 -413 0
23 22 19 413 0
413 -415 0
20 -414 0
21 -414 0
24 -414 0
-20 -21 -24 414 0
414 -415 0
-413 -414 415 0
-415 422 0
-29 -416 0
-28 -416 0
-25 -416 0
29 28 25 416 0
416 -418 0
26 -417 0
27 -417 0
30 -417 0
-26 -27 -30 417 0
417 -418 0
-416 -417 418 0
-418 422 0
-35 -419 0
-34 -419 0
-31 -419 0
35 34 31 419 0
419 -421 0
32 -420 0
33 -420 0
36 -420 0
-32 -33 -36 420 0
420 -421 0
-419 -420 421 0
-421 422 0
412 415 418 421 -422 0
422 -449 0
3 -425 0
412 -425 0
-3 -412 425 0
-425 437 0
6 -428 0
415 -428 0
-6 -415 428 0
-428 437 0
9 -431 0
418 -431 0
-9 -418 431 0
-431 437 0
12 -434 0
421 -434 0
-12 -421 434 0
-434 437 0
425 428 431 434 -437 0
437 -449 0
-422 -437 449 0
-437 -448 0
422 -448 0
437 -422 448 0
-449 -448 -450 0
450 -452 0
448 449 -451 0
451 -452 0
452 453 0
422 -444 0
2 -424 0
412 -424 0
-2 -412 424 0
-424 436 0
5 -427 0
415 -427 0
-5 -415 427 0
-427 436 0
8 -430 0
418 -430 0
-8 -418 430 0
-430 436 0
11 -433 0
421 -433 0
-11 -421 433 0
-433 436 0
424 427 430 433 -436 0
436 -444 0
-422 -436 444 0
-436 -443 0
422 -443 0
436 -422 443 0
-444 -443 -445 0
445 -447 0
443 444 -446 0
446 -447 0
447 453 0
422 -439 0
1 -423 0
412 -423 0
-1 -412 423 0
-423 435 0
4 -426 0
415 -426 0
-4 -415 426 0
-426 435 0
7 -429 0
418 -429 0
-7 -418 429 0
-429 435 0
10 -432 0
421 -432 0
-10 -421 432 0
-432 435 0
423 426 429 432 -435 0
435 -439 0
-422 -435 439 0
-435 -438 0
422 -438 0
435 -422 438 0
-439 -438 -440 0
440 -442 0
438 439 -441 0
441 -442 0
442 453 0
-453 -552 0
448 -552 0
-18 -454 0
-15 -454 0
-13 -454 0
18 15 13 454 0
454 -456 0
14 -455 0
16 -455 0
17 -455 0
-14 -16 -17 455 0
455 -456 0
-454 -455 456 0
-456 466 0
-24 -457 0
-21 -457 0
-19 -457 0
24 21 19 457 0
457 -459 0
20 -458 0
22 -458 0
23 -458 0
-20 -22 -23 458 0
458 -459 0
-457 -458 459 0
-459 466 0
-30 -460 0
-27 -460 0
-25 -460 0
30 27 25 460 0
460 -462 0
26 -461 0
28 -461 0
29 -461 0
-26 -28 -29 461 0
461 -462 0
-460 -461 462 0
-462 466 0
-36 -463 0
-33 -463 0
-31 -463 0
36 33 31 463 0
463 -465 0
32 -464 0
34 -464 0
35 -464 0
-32 -34 -35 464 0
464 -465 0
-463 -464 465 0
-465 466 0
456 459 462 465 -466 0
466 -493 0
3 -469 0
456 -469 0
-3 -456 469 0
-469 481 0
6 -472 0
459 -472 0
-6 -459 472 0
-472 481 0
9 -475 0
462 -475 0
-9 -462 475 0
-475 481 0
12 -478 0
465 -478 0
-12 -465 478 0
-478 481 0
469 472 475 478 -481 0
481 -493 0
-466 -481 493 0
-481 -492 0
466 -492 0
481 -466 492 0
-493 -492 -494 0
494 -496 0
492 493 -495 0
495 -496 0
496 497 0
466 -488 0
2 -468 0
456 -468 0
-2 -456 468 0
-468 480 0
5 -471 0
459 -471 0
-5 -459 471 0
-471 480 0
8 -474 0
462 -474 0
-8 -462 474 0
-474 480 0
11 -477 0
465 -477 0
-11 -465 477 0
-477 480 0
468 471 474 477 -480 0
480 -488 0
-466 -480 488 0
-480 -487 0
466 -487 0
480 -466 487 0
-488 -487 -489 0
489 -491 0
487 488 -490 0
490 -491 0
491 497 0
466 -483 0
1 -467 0
456 -467 0
-1 -456 467 0
-467 479 0
4 -470 0
459 -470 0
-4 -459 470 0
-470 479 0
7 -473 0
462 -473 0
-7 -462 473 0
-473 479 0
10 -476 0
465 -476 0
-10 -465 476 0
-476 479 0
467 470 473 476 -479 0
479 -483 0
-466 -479 483 0
-479 -482 0
466 -482 0
479 -466 482 0
-483 -482 -484 0
484 -486 0
482 483 -485 0
485 -486 0
486 497 0
-497 -555 0
493 -555 0
-17 -498 0
-15 -498 0
-13 -498 0
17 15 13 498 0
498 -500 0
14 -499 0
16 -499 0
18 -499 0
-14 -16 -18 499 0
499 -500 0
-498 -499 500 0
-500 510 0
-23 -501 0
-21 -501 0
-19 -501 0
23 21 19 501 0
501 -503 0
20 -502 0
22 -502 0
24 -502 0
-20 -22 -24 502 0
502 -503 0
-501 -502 503 0
-503 510 0
-29 -504 0
-27 -504 0
-25 -504 0
29 27 25 504 0
504 -506 0
26 -505 0
28 -505 0
30 -505 0
-26 -28 -30 505 0
505 -506 0
-504 -505 506 0
-506 510 0
-35 -507 0
-33 -507 0
-31 -507 0
35 33 31 507 0
507 -509 0
32 -508 0
34 -508 0
36 -508 0
-32 -34 -36 508 0
508 -509 0
-507 -508 509 0
-509 510 0
500 503 506 509 -510 0
510 -537 0
3 -513 0
500 -513 0
-3 -500 513 0
-513 525 0
6 -516 0
503 -516 0
-6 -503 516 0
-516 525 0
9 -519 0
506 -519 0
-9 -506 519 0
-519 525 0
12 -522 0
509 -522 0
-12 -509 522 0
-522 525 0
513 516 519 522 -525 0
525 -537 0
-510 -525 537 0
-525 -536 0
510 -536 0
525 -510 536 0
-537 -536 -538 0
538 -540 0
536 537 -539 0
539 -540 0
540 541 0
510 -532 0
2 -512 0
500 -512 0
-2 -500 512 0
-512 524 0
5 -515 0
503 -515 0
-5 -503 515 0
-515 524 0
8 -518 0
506 -518 0
-8 -506 518 0
-518 524 0
11 -521 0
509 -521 0
-11 -509 521 0
-521 524 0
512 515 518 521 -524 0
524 -532 0
-510 -524 532 0
-524 -531 0
510 -531 0
524 -510 531 0
-532 -531 -533 0
533 -535 0
531 532 -534 0
534 -535 0
535 541 0
510 -527 0
1 -511 0
500 -511 0
-1 -500 511 0
-511 523 0
4 -514 0
503 -514 0
-4 -503 514 0
-514 523 0
7 -517 0
506 -517 0
-7 -506 517 0
-517 523 0
10 -520 0
509 -520 0
-10 -509 520 0
-520 523 0
511 514 517 520 -523 0
523 -527 0
-510 -523 527 0
-523 -526 0
510 -526 0
523 -510 526 0
-527 -526 -528 0
528 -530 0
526 527 -529 0
529 -530 0
530 541 0
-541 -556 0
536 -556 0
-233 -559 0
224 -559 0
-277 -561 0
268 -561 0
-321 -562 0
311 -562 0
-365 -564 0
355 -564 0
-409 -567 0
400 -567 0
-453 -569 0
444 -569 0
-497 -570 0
487 -570 0
-541 -572 0
531 -572 0
-233 -575 0
219 -575 0
-277 -577 0
263 -577 0
-321 -579 0
307 -579 0
-365 -581 0
351 -581 0
-409 -582 0
394 -582 0
-453 -584 0
438 -584 0
-497 -586 0
482 -586 0
-541 -588 0
526 -588 0
543 544 547 548 551 552 555 556 559 561 562 564 567 569 570 572 575 577 579 581 582 584 586 588 -590 0
590 -591 0
-1 4 -592 0
592 -620 0
-1 -4 593 0
1 4 593 0
-4 4 593 0
-2 5 -594 0
-593 594 -595 0
595 -620 0
-2 -5 596 0
2 5 596 0
-5 5 596 0
-593 -596 597 0
-3 6 -598 0
-597 598 -599 0
599 -620 0
-3 -6 600 0
3 6 600 0
-6 6 600 0
-597 -600 601 0
-601 74 -602 0
602 -620 0
-13 -19 603 0
13 19 603 0
-19 19 603 0
-601 -603 604 0
-604 75 -605 0
605 -620 0
-14 -20 606 0
14 20 606 0
-20 20 606 0
-604 -606 607 0
-607 76 -608 0
608 -620 0
-15 -21 609 0
15 21 609 0
-21 21 609 0
-607 -609 610 0
-610 77 -611 0
611 -620 0
-16 -22 612 0
16 22 612 0
-22 22 612 0
-610 -612 613 0
-613 78 -614 0
614 -620 0
-17 -23 615 0
17 23 615 0
-23 23 615 0
-613 -615 616 0
-616 79 -617 0
617 -620 0
620 -679 0
-4 7 -621 0
621 -649 0
-4 -7 622 0
4 7 622 0
-7 7 622 0
-5 8 -623 0
-622 623 -624 0
624 -649 0
-5 -8 625 0
5 8 625 0
-8 8 625 0
-622 -625 626 0
-6 9 -627 0
-626 627 -628 0
628 -649 0
-6 -9 629 0
6 9 629 0
-9 9 629 0
-626 -629 630 0
-630 119 -631 0
631 -649 0
-19 -25 632 0
19 25 632 0
-25 25 632 0
-630 -632 633 0
-633 120 -634 0
634 -649 0
-20 -26 635 0
20 26 635 0
-26 26 635 0
-633 -635 636 0
-636 121 -637 0
637 -649 0
-21 -27 638 0
21 27 638 0
-27 27 638 0
-636 -638 639 0
-639 122 -640 0
640 -649 0
-22 -28 641 0
22 28 641 0
-28 28 641 0
-639 -641 642 0
-642 123 -643 0
643 -649 0
-23 -29 644 0
23 29 644 0
-29 29 644 0
-642 -644 645 0
-645 124 -646 0
646 -649 0
649 -679 0
-7 10 -650 0
650 -678 0
-7 -10 651 0
7 10 651 0
-10 10 651 0
-8 11 -652 0
-651 652 -653 0
653 -678 0
-8 -11 654 0
8 11 654 0
-11 11 654 0
-651 -654 655 0
-9 12 -656 0
-655 656 -657 0
657 -678 0
-9 -12 658 0
9 12 658 0
-12 12 658 0
-655 -658 659 0
-659 149 -660 0
660 -678 0
-25 -31 661 0
25 31 661 0
-31 31 661 0
-659 -661 662 0
-662 150 -663 0
663 -678 0
-26 -32 664 0
26 32 664 0
-32 32 664 0
-662 -664 665 0
-665 151 -666 0
666 -678 0
-27 -33 667 0
27 33 667 0
-33 33 667 0
-665 -667 668 0
-668 152 -669 0
669 -678 0
-28 -34 670 0
28 34 670 0
-34 34 670 0
-668 -670 671 0
-671 153 -672 0
672 -678 0
-29 -35 673 0
29 35 673 0
-35 35 673 0
-671 -673 674 0
-674 154 -675 0
675 -678 0
678 -679 0
591 0
679 0
